# Objective value = 2.9961093806706947e+02
x[0] 0
x[1] 0
x[2] 1
x[3] 1
x[4] 0
x[5] 0
x[6] 0
x[7] 1
x[8] 0
x[9] 1
x[10] 0
x[11] 0
x[12] 1
x[13] 0
x[14] 0
x[15] 0
x[16] 0
x[17] 1
x[18] 1
x[19] 0
x[20] 1
x[21] 0
x[22] 1
x[23] 0
x[24] 0
x[25] 0
x[26] 1
x[27] 0
x[28] 0
x[29] 1
x[30] 0
x[31] 1
x[32] 1
x[33] 0
x[34] 0
x[35] 0
x[36] 0
x[37] 1
x[38] 1
x[39] 1
x[40] 1
x[41] 1
x[42] 0
x[43] 0
x[44] 1
x[45] 0
x[46] 0
x[47] 1
x[48] 1
x[49] 1
x[50] 0
x[51] 0
x[52] 0
x[53] 0
x[54] 1
x[55] 1
x[56] 0
x[57] 0
x[58] 0
x[59] 1
x[60] 0
x[61] 0
x[62] 1
x[63] 1
x[64] 0
x[65] 0
x[66] 1
x[67] 1
x[68] 1
x[69] 1
x[70] 0
x[71] 1
x[72] 0
x[73] 1
x[74] 0
x[75] 0
x[76] 0
x[77] 0
x[78] 1
x[79] 1
x[80] 1
x[81] 0
x[82] 1
x[83] 1
x[84] 0
x[85] 0
x[86] 1
x[87] 0
x[88] 1
x[89] 1
x[90] 1
x[91] 1
x[92] 0
x[93] 0
x[94] 1
x[95] 0
x[96] 1
x[97] 0
x[98] 1
x[99] 1
x[100] 0
x[101] 0
x[102] 1
x[103] 0
x[104] 0
x[105] 1
x[106] 0
x[107] 0
x[108] 0
x[109] 0
x[110] 1
x[111] 0
x[112] 1
x[113] 1
x[114] 1
x[115] 0
x[116] 0
x[117] 1
x[118] 0
x[119] 0
x[120] 0
x[121] 1
x[122] 0
x[123] 1
x[124] 1
x[125] 1
x[126] 1
x[127] 0
x[128] 1
x[129] 1
x[130] 1
x[131] 1
x[132] 0
x[133] 0
x[134] 1
x[135] 0
x[136] 0
x[137] 0
x[138] 1
x[139] 1
x[140] 0
x[141] 0
x[142] 0
x[143] 1
x[144] 1
x[145] 1
x[146] 0
x[147] 0
x[148] 1
x[149] 1
x[150] 1
x[151] 0
x[152] 1
x[153] 1
x[154] 0
x[155] 1
x[156] 1
x[157] 1
x[158] 1
x[159] 0
x[160] 0
x[161] 0
x[162] 1
x[163] 0
x[164] 0
x[165] 0
x[166] 1
x[167] 1
x[168] 1
x[169] 1
x[170] 0
x[171] 1
x[172] 0
x[173] 0
x[174] 0
x[175] 1
x[176] 0
x[177] 1
x[178] 0
x[179] 0
x[180] 0
x[181] 0
x[182] 0
x[183] 0
x[184] 1
x[185] 1
x[186] 1
x[187] 1
x[188] 0
x[189] 0
x[190] 0
x[191] 0
x[192] 1
x[193] 0
x[194] 1
x[195] 1
x[196] 0
x[197] 0
x[198] 0
x[199] 1
x[200] 1
x[201] 0
x[202] 1
x[203] 1
x[204] 0
x[205] 0
x[206] 0
x[207] 1
x[208] 0
x[209] 0
x[210] 1
x[211] 0
x[212] 0
x[213] 1
x[214] 1
x[215] 1
x[216] 0
x[217] 1
x[218] 1
x[219] 0
x[220] 1
x[221] 0
x[222] 1
x[223] 1
x[224] 0
x[225] 0
x[226] 1
x[227] 1
x[228] 0
x[229] 1
x[230] 1
x[231] 1
x[232] 0
x[233] 1
x[234] 0
x[235] 0
x[236] 1
x[237] 0
x[238] 0
x[239] 0
x[240] 0
x[241] 0
x[242] 0
x[243] 0
x[244] 0
x[245] 1
x[246] 1
x[247] 1
x[248] 0
x[249] 1
x[250] 1
x[251] 0
x[252] 1
x[253] 0
x[254] 0
x[255] 1
x[256] 0
x[257] 1
x[258] 1
x[259] 0
x[260] 0
x[261] 0
x[262] 0
x[263] 0
x[264] 1
x[265] 1
x[266] 0
x[267] 1
x[268] 1
x[269] 1
x[270] 1
x[271] 0
x[272] 1
x[273] 1
x[274] 1
x[275] 0
x[276] 1
x[277] 0
x[278] 1
x[279] 0
x[280] 1
x[281] 1
x[282] 0
x[283] 0
x[284] 0
x[285] 1
x[286] 0
x[287] 0
x[288] 0
x[289] 1
x[290] 0
x[291] 0
x[292] 0
x[293] 1
x[294] 0
x[295] 1
x[296] 0
x[297] 1
x[298] 0
x[299] 0
x[300] 1
x[301] 0
x[302] 1
x[303] 1
x[304] 0
x[305] 0
x[306] 0
x[307] 1
x[308] 0
x[309] 1
x[310] 0
x[311] 1
x[312] 0
x[313] 1
x[314] 1
x[315] 0
x[316] 1
x[317] 0
x[318] 0
x[319] 1
x[320] 1
x[321] 1
x[322] 1
x[323] 1
x[324] 0
x[325] 1
x[326] 0
x[327] 0
x[328] 1
x[329] 1
x[330] 0
x[331] 1
x[332] 1
x[333] 1
x[334] 1
x[335] 1
x[336] 1
x[337] 0
x[338] 0
x[339] 1
x[340] 1
x[341] 0
x[342] 0
x[343] 1
x[344] 0
x[345] 1
x[346] 0
x[347] 0
x[348] 0
x[349] 1
x[350] 1
x[351] 1
x[352] 0
x[353] 0
x[354] 1
x[355] 0
x[356] 1
x[357] 0
x[358] 0
x[359] 0
x[360] 0
x[361] 0
x[362] 0
x[363] 0
x[364] 0
x[365] 1
x[366] 0
x[367] 1
x[368] 0
x[369] 0
x[370] 1
x[371] 1
x[372] 1
x[373] 0
x[374] 0
x[375] 0
x[376] 1
x[377] 1
x[378] 1
x[379] 1
x[380] 1
x[381] 1
x[382] 0
x[383] 0
x[384] 0
x[385] 0
x[386] 1
x[387] 1
x[388] 0
x[389] 1
x[390] 0
x[391] 0
x[392] 0
x[393] 0
x[394] 1
x[395] 0
x[396] 1
x[397] 1
x[398] 0
x[399] 1
x[400] 0
x[401] 0
x[402] 0
x[403] 1
x[404] 1
x[405] 0
x[406] 1
x[407] 1
x[408] 1
x[409] 0
x[410] 0
x[411] 0
x[412] 0
x[413] 0
x[414] 0
x[415] 0
x[416] 0
x[417] 0
x[418] 0
x[419] 1
x[420] 1
x[421] 0
x[422] 1
x[423] 0
x[424] 0
x[425] 0
x[426] 0
x[427] 1
x[428] 0
x[429] 0
x[430] 0
x[431] 1
x[432] 0
x[433] 0
x[434] 1
x[435] 0
x[436] 0
x[437] 1
x[438] 0
x[439] 1
x[440] 0
x[441] 0
x[442] 0
x[443] 1
x[444] 1
x[445] 1
x[446] 1
x[447] 1
x[448] 0
x[449] 1
x[450] 0
x[451] 1
x[452] 1
x[453] 1
x[454] 0
x[455] 0
x[456] 0
x[457] 1
x[458] 1
x[459] 1
x[460] 1
x[461] 1
x[462] 1
x[463] 0
x[464] 0
x[465] 1
x[466] 1
x[467] 0
x[468] 1
x[469] 0
x[470] 1
x[471] 0
x[472] 0
x[473] 1
x[474] 0
x[475] 1
x[476] 1
x[477] 0
x[478] 0
x[479] 0
x[480] 0
x[481] 1
x[482] 1
x[483] 1
x[484] 0
x[485] 0
x[486] 1
x[487] 1
x[488] 0
x[489] 0
x[490] 0
x[491] 1
x[492] 1
x[493] 1
x[494] 0
x[495] 0
x[496] 0
x[497] 0
x[498] 1
x[499] 0
x[500] 0
x[501] 0
x[502] 0
x[503] 0
x[504] 1
x[505] 0
x[506] 0
x[507] 1
x[508] 0
x[509] 1
x[510] 1
x[511] 0
x[512] 1
x[513] 1
x[514] 1
x[515] 1
x[516] 1
x[517] 1
x[518] 1
x[519] 1
x[520] 1
x[521] 1
x[522] 1
x[523] 0
x[524] 0
x[525] 1
x[526] 1
x[527] 0
x[528] 0
x[529] 0
x[530] 1
x[531] 0
x[532] 1
x[533] 0
x[534] 1
x[535] 0
x[536] 1
x[537] 1
x[538] 0
x[539] 1
x[540] 0
x[541] 0
x[542] 1
x[543] 1
x[544] 0
x[545] 1
x[546] 1
x[547] 1
x[548] 0
x[549] 0
x[550] 0
x[551] 0
x[552] 1
x[553] 0
x[554] 0
x[555] 0
x[556] 0
x[557] 1
x[558] 1
x[559] 0
x[560] 1
x[561] 0
x[562] 1
x[563] 0
x[564] 0
x[565] 0
x[566] 0
x[567] 1
x[568] 0
x[569] 1
x[570] 0
x[571] 1
x[572] 1
x[573] 1
x[574] 1
x[575] 1
x[576] 0
x[577] 0
x[578] 0
x[579] 0
x[580] 0
x[581] 1
x[582] 0
x[583] 0
x[584] 0
x[585] 1
x[586] 0
x[587] 1
x[588] 0
x[589] 0
x[590] 1
x[591] 1
x[592] 1
x[593] 1
x[594] 1
x[595] 0
x[596] 0
x[597] 0
x[598] 0
x[599] 0
x[600] 0
x[601] 0
x[602] 0
x[603] 1
x[604] 1
x[605] 1
x[606] 0
x[607] 0
x[608] 0
x[609] 0
x[610] 0
x[611] 0
x[612] 1
x[613] 0
x[614] 1
x[615] 0
x[616] 1
x[617] 1
x[618] 1
x[619] 0
x[620] 1
x[621] 0
x[622] 1
x[623] 0
x[624] 1
x[625] 1
x[626] 1
x[627] 0
x[628] 0
x[629] 0
x[630] 0
x[631] 0
x[632] 1
x[633] 1
x[634] 1
x[635] 0
x[636] 1
x[637] 0
x[638] 0
x[639] 1
x[640] 0
x[641] 0
x[642] 1
x[643] 1
x[644] 0
x[645] 0
x[646] 0
x[647] 0
x[648] 1
x[649] 1
x[650] 1
x[651] 0
x[652] 1
x[653] 1
x[654] 1
x[655] 0
x[656] 0
x[657] 0
x[658] 1
x[659] 1
x[660] 0
x[661] 1
x[662] 0
x[663] 1
x[664] 1
x[665] 0
x[666] 0
x[667] 1
x[668] 0
x[669] 0
x[670] 0
x[671] 0
x[672] 0
x[673] 0
x[674] 1
x[675] 0
x[676] 1
x[677] 1
x[678] 1
x[679] 1
x[680] 1
x[681] 1
x[682] 0
x[683] 1
x[684] 0
x[685] 1
x[686] 0
x[687] 0
x[688] 0
x[689] 1
x[690] 1
x[691] 0
x[692] 0
x[693] 1
x[694] 0
x[695] 1
x[696] 1
x[697] 1
x[698] 1
x[699] 1
x[700] 1
x[701] 1
x[702] 1
x[703] 0
x[704] 1
x[705] 0
x[706] 0
x[707] 0
x[708] 0
x[709] 0
x[710] 0
x[711] 1
x[712] 1
x[713] 1
x[714] 0
x[715] 1
x[716] 1
x[717] 1
x[718] 1
x[719] 1
x[720] 1
x[721] 0
x[722] 0
x[723] 1
x[724] 0
x[725] 0
x[726] 1
x[727] 0
x[728] 1
x[729] 0
x[730] 1
x[731] 1
x[732] 1
x[733] 0
x[734] 0
x[735] 0
x[736] 0
x[737] 0
x[738] 0
x[739] 0
x[740] 1
x[741] 1
x[742] 1
x[743] 0
x[744] 1
x[745] 1
x[746] 1
x[747] 1
x[748] 0
x[749] 0
x[750] 0
x[751] 0
x[752] 0
x[753] 1
x[754] 1
x[755] 1
x[756] 1
x[757] 1
x[758] 1
x[759] 0
x[760] 1
x[761] 0
x[762] 1
x[763] 1
x[764] 1
x[765] 0
x[766] 1
x[767] 0
x[768] 0
x[769] 1
x[770] 0
x[771] 0
x[772] 1
x[773] 0
x[774] 1
x[775] 0
x[776] 0
x[777] 1
x[778] 0
x[779] 1
x[780] 0
x[781] 0
x[782] 0
x[783] 1
x[784] 1
x[785] 0
x[786] 1
x[787] 1
x[788] 0
x[789] 1
x[790] 1
x[791] 0
x[792] 0
x[793] 1
x[794] 1
x[795] 0
x[796] 1
x[797] 1
x[798] 0
x[799] 1
x[800] 0
x[801] 0
x[802] 0
x[803] 1
x[804] 1
x[805] 1
x[806] 0
x[807] 0
x[808] 1
x[809] 0
x[810] 0
x[811] 1
x[812] 0
x[813] 0
x[814] 1
x[815] 1
x[816] 1
x[817] 0
x[818] 1
x[819] 0
x[820] 1
x[821] 0
x[822] 0
x[823] 1
x[824] 0
x[825] 0
x[826] 0
x[827] 1
x[828] 1
x[829] 0
x[830] 0
x[831] 1
x[832] 1
x[833] 1
x[834] 1
x[835] 1
x[836] 1
x[837] 0
x[838] 1
x[839] 0
x[840] 1
x[841] 1
x[842] 1
x[843] 0
x[844] 0
x[845] 0
x[846] 1
x[847] 0
x[848] 1
x[849] 0
x[850] 0
x[851] 1
x[852] 1
x[853] 1
x[854] 0
x[855] 0
x[856] 0
x[857] 1
x[858] 0
x[859] 1
x[860] 1
x[861] 0
x[862] 0
x[863] 0
x[864] 1
x[865] 1
x[866] 1
x[867] 1
x[868] 0
x[869] 1
x[870] 1
x[871] 0
x[872] 0
x[873] 1
x[874] 1
x[875] 1
x[876] 0
x[877] 0
x[878] 1
x[879] 1
x[880] 1
x[881] 0
x[882] 1
x[883] 1
x[884] 1
x[885] 1
x[886] 0
x[887] 1
x[888] 1
x[889] 0
x[890] 1
x[891] 1
x[892] 1
x[893] 0
x[894] 1
x[895] 1
x[896] 1
x[897] 1
x[898] 0
x[899] 1
x[900] 0
x[901] 0
x[902] 1
x[903] 1
x[904] 1
x[905] 1
x[906] 0
x[907] 1
x[908] 0
x[909] 1
x[910] 1
x[911] 1
x[912] 0
x[913] 0
x[914] 1
x[915] 1
x[916] 1
x[917] 1
x[918] 1
x[919] 0
x[920] 1
x[921] 0
x[922] 0
x[923] 0
x[924] 0
x[925] 1
x[926] 1
x[927] 0
x[928] 0
x[929] 0
x[930] 1
x[931] 1
x[932] 1
x[933] 0
x[934] 1
x[935] 0
x[936] 0
x[937] 0
x[938] 1
x[939] 1
x[940] 0
x[941] 1
x[942] 0
x[943] 0
x[944] 1
x[945] 0
x[946] 0
x[947] 0
x[948] 1
x[949] 0
x[950] 0
x[951] 1
x[952] 1
x[953] 0
x[954] 1
x[955] 1
x[956] 0
x[957] 1
x[958] 0
x[959] 1
x[960] 1
x[961] 0
x[962] 0
x[963] 1
x[964] 0
x[965] 1
x[966] 0
x[967] 0
x[968] 1
x[969] 1
x[970] 1
x[971] 1
x[972] 0
x[973] 1
x[974] 0
x[975] 0
x[976] 1
x[977] 1
x[978] 0
x[979] 1
x[980] 1
x[981] 0
x[982] 0
x[983] 1
x[984] 0
x[985] 1
x[986] 1
x[987] 0
x[988] 1
x[989] 0
x[990] 1
x[991] 0
x[992] 1
x[993] 1
x[994] 0
x[995] 1
x[996] 0
x[997] 0
x[998] 0
x[999] 1
